c atoms: E(2,2) E(1,2) E(1,1) E(2,1) E(2,0) E(0,2) E(0,0) E(0,1) E(1,0)
p cnf 9 24
-7 0
-3 0
-1 0
7 -7 0
8 -9 0
6 -5 0
9 -8 0
3 -3 0
2 -4 0
5 -6 0
4 -2 0
1 -1 0
7 8 -6 0
7 6 -8 0
8 6 -7 0
9 3 -2 0
9 2 -3 0
3 2 -9 0
5 4 -1 0
5 1 -4 0
4 1 -5 0
-7 -8 -6 0
-9 -3 -2 0
-5 -4 -1 0
